NAME : netgen18-5-9
COMMENT : Generated using the function generateClusteredNetwork from the R-package netgen (Bossek,2015) - Number of clusters: 5
TYPE : TSP
DIMENSION : 18
EDGE_WEIGHT_TYPE : EUC_2D
NODE_COORD_SECTION
1 14.1902744232 74.7133898223
2 15.9263472244 71.8255958068
3 9.9520227501 62.0571821091
4 37.2222742957 62.1337162024
5 51.255605824 59.8974020419
6 49.8544300634 67.4499629727
7 74.5908516731 30.5772900641
8 67.7577697723 28.0278056329
9 66.6381830126 34.3032831776
10 75.5062782049 31.7162012528
11 76.4164134153 29.9550227636
12 88.5139704687 35.0041276669
13 97.0670459489 85.4091869952
14 96.9207584759 74.8724010587
15 92.5670306618 78.2294550475
16 39.3115569183 23.3993392409
17 28.7439588514 14.1912035732
18 31.9850110803 14.8198235856
EOF
